c Sudoku solution
p cnf 729 0
179 0
181 0
197 0
225 0
234 0
283 0
348 0
418 0
493 0
532 0
553 0
576 0
589 0
644 0
651 0
692 0
757 0
782 0
811 0
914 0
926 0
822 0
937 0
969 0
998 0
985 0
952 0
858 0
688 0
568 0
278 0
372 0
395 0
384 0
296 0
259 0
356 0
449 0
462 0
154 0
455 0
547 0
666 0
436 0
515 0
675 0
116 0
212 0
331 0
142 0
165 0
363 0
241 0
267 0
943 0
761 0
864 0
971 0
591 0
421 0
524 0
487 0
474 0
773 0
877 0
794 0
886 0
899 0
719 0
728 0
735 0
833 0
746 0
845 0
613 0
639 0
627 0
317 0
329 0
123 0
138 0
